100
1000
163
162
157
157
156
155
151
150
149
149
149
146
145
145
144
143
142
141
140
140
139
139
138
137
130
130
128
128
128
127
127
127
126
126
125
125
125
125
123
123
122
122
119
118
118
118
117
115
115
114
114
111
106
106
105
104
104
103
102
102
102
100
99
99
93
93
92
92
91
90
88
85
81
79
79
79
79
78
74
73
73
72
68
68
67
67
66
65
65
65
64
64
63
63
62
61
60
60
59
58
